
Gurobi 7.5.2 (linux64) logging started Sat Jun 23 16:25:59 2018

Changed value of parameter LogFile to result/ilp/simNo_1-n_100-m_40-s_7-minVAF_0.05-cov_2000-k_2-fn_0.25-fp_0.0001-na_0.15.ILP.gurobiSolverLog
   Prev: gurobi.log  Default: 
Changed value of parameter TimeLimit to 86400.0
   Prev: 1e+100  Min: 0.0  Max: 1e+100  Default: 1e+100
Optimize a model with 1265601 rows, 330440 columns and 3489120 nonzeros
Variable types: 0 continuous, 330440 integer (330440 binary)
Coefficient statistics:
  Matrix range     [5e-04, 4e+00]
  Objective range  [1e+00, 3e+01]
  Bounds range     [1e+00, 1e+00]
  RHS range        [5e-02, 2e+00]
Found heuristic solution: objective -13445.08927
Presolve removed 397321 rows and 227184 columns (presolve time = 6s) ...
Presolve removed 397553 rows and 227184 columns (presolve time = 10s) ...
Presolve removed 397553 rows and 227184 columns (presolve time = 15s) ...
Presolve removed 397553 rows and 227184 columns (presolve time = 20s) ...
Presolve removed 397553 rows and 227184 columns (presolve time = 25s) ...
Presolve removed 397553 rows and 227184 columns (presolve time = 32s) ...
Presolve removed 397553 rows and 227184 columns
Presolve time: 34.89s
Presolved: 868048 rows, 103256 columns, 2415811 nonzeros
Variable types: 0 continuous, 103256 integer (103256 binary)
Presolve removed 0 rows and 0 columns (presolve time = 5s) ...
Presolved: 103256 rows, 971304 columns, 2519067 nonzeros

Presolve removed 103256 rows and 971304 columns

Root simplex log...

Iteration    Objective       Primal Inf.    Dual Inf.      Time
       0    5.5419442e+01   0.000000e+00   8.922900e+04     47s
   11538   -1.9213339e+02   0.000000e+00   1.077012e+06     50s
   18054   -2.1118408e+02   0.000000e+00   3.397163e+05     56s
   23484   -2.2640392e+02   0.000000e+00   1.066298e+06     60s
   34344   -2.4595078e+02   0.000000e+00   1.486741e+05     65s
   44661   -2.6654923e+02   0.000000e+00   2.426177e+05     70s
   54435   -2.7773228e+02   0.000000e+00   5.024129e+04     75s
   64209   -2.9206370e+02   0.000000e+00   1.333287e+06     80s
   72897   -3.0041386e+02   0.000000e+00   3.523180e+05     85s
   79956   -3.0935459e+02   0.000000e+00   4.562091e+04     91s
   85929   -3.1707106e+02   0.000000e+00   2.345831e+05     96s
   95160   -3.2489571e+02   0.000000e+00   5.090500e+03    100s
  102042   -3.2720550e+02   0.000000e+00   0.000000e+00    104s
  102042   -3.2720550e+02   0.000000e+00   0.000000e+00    106s

Root relaxation: objective -3.272055e+02, 102042 iterations, 67.54 seconds
Total elapsed time = 157.04s
Total elapsed time = 165.32s

    Nodes    |    Current Node    |     Objective Bounds      |     Work
 Expl Unexpl |  Obj  Depth IntInf | Incumbent    BestBd   Gap | It/Node Time

     0     0 -327.20550    0 1688 -13445.089 -327.20550  97.6%     -  174s
H    0     0                    -337.3962361 -327.20550  3.02%     -  220s
     0     0 -328.77652    0 1692 -337.39624 -328.77652  2.55%     -  254s
     0     0 -329.45602    0 1755 -337.39624 -329.45602  2.35%     -  287s
     0     0 -329.45602    0 1756 -337.39624 -329.45602  2.35%     -  301s
     0     0 -331.26566    0 1699 -337.39624 -331.26566  1.82%     -  327s
     0     0 -331.30646    0 1699 -337.39624 -331.30646  1.80%     -  350s
     0     0 -331.30646    0 1709 -337.39624 -331.30646  1.80%     -  358s
     0     0 -331.34727    0 1703 -337.39624 -331.34727  1.79%     -  376s
     0     0 -331.46969    0 1702 -337.39624 -331.46969  1.76%     -  395s
     0     0 -331.46969    0 1705 -337.39624 -331.46969  1.76%     -  402s
     0     0 -331.53090    0 1695 -337.39624 -331.53090  1.74%     -  429s
     0     0 -331.70092    0 1699 -337.39624 -331.70092  1.69%     -  446s
     0     0 -331.70092    0 1701 -337.39624 -331.70092  1.69%     -  455s
     0     0 -332.24499    0 1716 -337.39624 -332.24499  1.53%     -  479s
     0     0 -332.77093    0 1686 -337.39624 -332.77093  1.37%     -  499s
     0     0 -332.77547    0 1716 -337.39624 -332.77547  1.37%     -  507s
     0     0 -332.77887    0 1716 -337.39624 -332.77887  1.37%     -  515s
     0     0 -333.84321    0 1706 -337.39624 -333.84321  1.05%     -  540s
     0     0 -333.88402    0 1710 -337.39624 -333.88402  1.04%     -  555s
     0     0 -333.88402    0 1709 -337.39624 -333.88402  1.04%     -  564s
     0     0 -334.22747    0 1705 -337.39624 -334.22747  0.94%     -  586s
     0     0 -334.22747    0 1705 -337.39624 -334.22747  0.94%     -  600s
     0     0 -334.22747    0 1741 -337.39624 -334.22747  0.94%     -  623s
     0     0 -334.25467    0 1689 -337.39624 -334.25467  0.93%     -  637s
     0     0 -334.25467    0 1793 -337.39624 -334.25467  0.93%     -  647s
     0     0 -334.29548    0 1824 -337.39624 -334.29548  0.92%     -  738s
     0     0 -334.29548    0  275 -337.39624 -334.29548  0.92%     -  871s
     0     0 -336.66674    0  222 -337.39624 -336.66674  0.22%     -  878s
     0     0     cutoff    0      -337.39624 -337.39624  0.00%     -  884s

Cutting planes:
  Gomory: 2
  Implied bound: 3
  Clique: 23
  Zero half: 33

Explored 1 nodes (149481 simplex iterations) in 885.35 seconds
Thread count was 1 (of 80 available processors)

Solution count 3: -337.396 -337.396 -13445.1 

Optimal solution found (tolerance 1.00e-04)
Best objective -3.373962361376e+02, best bound -3.373962361376e+02, gap 0.0000%
